* ENCODING=ISO-8859-1
NAME          CPLEX
ROWS
 N  obj1    
 G  c1      
 G  c2      
 G  c3      
 G  c4      
 G  c5      
 G  c6      
 G  c7      
 G  c8      
 G  c9      
 G  c10     
 G  c11     
 G  c12     
 G  c13     
 G  c14     
 G  c15     
 G  c16     
 G  c17     
 G  c18     
 G  c19     
 G  c20     
 G  c21     
 G  c22     
 G  c23     
 G  c24     
 G  c25     
 G  c26     
 G  c27     
 G  c28     
 G  c29     
 G  c30     
 G  c31     
 G  c32     
 G  c33     
 G  c34     
 G  c35     
 G  c36     
 G  c37     
 G  c38     
 G  c39     
 G  c40     
 G  c41     
 G  c42     
 G  c43     
 G  c44     
 G  c45     
 G  c46     
 G  c47     
 G  c48     
 G  c49     
 G  c50     
 G  c51     
 G  c52     
 G  c53     
 G  c54     
 G  c55     
 G  c56     
 G  c57     
 G  c58     
 G  c59     
 G  c60     
 G  c61     
 G  c62     
 G  c63     
 G  c64     
 G  c65     
 G  c66     
 G  c67     
 G  c68     
 G  c69     
 G  c70     
COLUMNS
    MARK0000  'MARKER'                 'INTORG'
    x1        obj1                            1
    x1        c2                            181
    x1        c5                            459
    x1        c8                            318
    x1        c11                           292
    x1        c45                           242
    x1        c60                           917
    x2        obj1                            1
    x2        c49                           473
    x2        c56                           843
    x2        c60                           174
    x2        c70                           411
    x3        obj1                            1
    x3        c5                            371
    x3        c6                            453
    x3        c7                            309
    x3        c12                           638
    x3        c17                           722
    x3        c19                           482
    x3        c23                           470
    x3        c29                           483
    x3        c30                           921
    x3        c32                           189
    x3        c42                           854
    x4        obj1                            1
    x4        c5                            716
    x4        c7                            182
    x4        c17                           717
    x4        c19                           925
    x4        c24                           684
    x4        c34                           424
    x4        c45                           280
    x4        c66                           101
    x4        c67                           438
    x4        c70                           365
    x5        obj1                            1
    x5        c14                           358
    x5        c22                           729
    x5        c26                           361
    x5        c34                           960
    x5        c39                           970
    x5        c45                           218
    x5        c46                           571
    x5        c50                           107
    x5        c52                           462
    x5        c53                           145
    x5        c57                           441
    x5        c58                           395
    x5        c60                           613
    x5        c61                           308
    x6        obj1                            1
    x6        c13                           614
    x6        c18                           801
    x6        c32                           805
    x6        c33                           314
    x6        c53                           227
    x6        c64                           389
    x6        c66                           993
    x7        obj1                            1
    x7        c24                           537
    x7        c31                           575
    x7        c32                           830
    x7        c41                           105
    x7        c65                           975
    x7        c68                           577
    x8        obj1                            1
    x8        c8                            747
    x8        c9                            760
    x8        c22                           385
    x8        c44                           517
    x8        c51                           428
    x8        c61                           336
    x8        c64                           279
    x8        c65                           314
    x8        c67                           170
    x9        obj1                            1
    x9        c7                            702
    x9        c8                            521
    x9        c9                            998
    x9        c10                           253
    x9        c18                           281
    x9        c56                           242
    x9        c57                           109
    x9        c62                           166
    x9        c63                           447
    x9        c65                           241
    x9        c66                           178
    x10       obj1                            1
    x10       c5                            723
    x10       c31                           939
    x10       c66                           986
    x11       obj1                            1
    x11       c9                            124
    x11       c10                           205
    x11       c17                           755
    x11       c21                           445
    x11       c33                           778
    x11       c48                           239
    x11       c50                           464
    x12       obj1                            1
    x12       c1                            180
    x12       c8                            820
    x12       c10                           907
    x12       c15                           655
    x12       c26                           556
    x12       c27                           521
    x12       c33                           955
    x12       c44                           592
    x12       c45                           839
    x12       c51                           468
    x12       c61                           326
    x13       obj1                            1
    x13       c4                            894
    x13       c12                           853
    x13       c14                           765
    x13       c24                           566
    x13       c26                           480
    x13       c31                           128
    x13       c46                           124
    x13       c49                           900
    x13       c50                           416
    x13       c60                           598
    x14       obj1                            1
    x14       c46                           838
    x15       obj1                            1
    x15       c15                           434
    x15       c17                           542
    x15       c27                           769
    x15       c42                           676
    x15       c46                           798
    x15       c51                           527
    x15       c52                           756
    x15       c55                           176
    x15       c57                           203
    x15       c64                           823
    x15       c69                           480
    x16       obj1                            1
    x16       c24                           756
    x16       c26                           783
    x16       c29                           738
    x16       c41                           817
    x16       c48                           189
    x17       obj1                            1
    x17       c16                           607
    x17       c18                           449
    x17       c20                           750
    x17       c22                           806
    x17       c25                           616
    x17       c27                           968
    x17       c41                           413
    x17       c44                           760
    x17       c48                           365
    x17       c51                           564
    x17       c57                           678
    x18       obj1                            1
    x18       c1                            182
    x18       c2                            190
    x18       c4                            691
    x18       c14                           774
    x18       c20                           825
    x18       c22                           927
    x18       c24                           913
    x18       c26                           855
    x18       c45                           618
    x18       c50                           790
    x18       c55                           595
    x18       c67                           231
    x19       obj1                            1
    x19       c12                           540
    x19       c13                           987
    x19       c18                           419
    x19       c21                           398
    x19       c32                           276
    x19       c46                           571
    x19       c50                           681
    x20       obj1                            1
    x20       c2                            814
    x20       c10                           106
    x20       c13                           155
    x20       c28                           539
    x20       c37                           711
    x20       c43                           316
    x21       obj1                            1
    x21       c2                            594
    x21       c17                           911
    x21       c18                           337
    x21       c32                           475
    x21       c37                           494
    x21       c48                           886
    x21       c52                           172
    x21       c53                           405
    x21       c55                           324
    x21       c66                           658
    x22       obj1                            1
    x22       c26                           816
    x22       c28                           191
    x22       c37                           573
    x22       c38                           344
    x22       c44                           303
    x22       c47                           934
    x22       c61                           179
    x22       c65                           823
    x22       c67                           151
    x23       obj1                            1
    x23       c17                           661
    x23       c39                           403
    x23       c45                           369
    x23       c57                           648
    x24       obj1                            1
    x24       c3                            389
    x24       c12                           495
    x24       c14                           354
    x24       c22                           474
    x24       c24                           726
    x24       c25                           199
    x24       c28                           476
    x24       c30                           459
    x24       c58                           954
    x24       c62                           830
    x24       c69                           619
    x25       obj1                            1
    x25       c26                           318
    x25       c27                           135
    x25       c31                           250
    x25       c39                           106
    x25       c44                           341
    x25       c56                           662
    x26       obj1                            1
    x26       c3                            975
    x26       c16                           471
    x26       c25                           299
    x26       c35                           917
    x26       c37                           454
    x26       c43                           219
    x26       c46                           911
    x26       c54                           475
    x27       obj1                            1
    x27       c29                           608
    x27       c30                           139
    x27       c35                           628
    x27       c38                           784
    x27       c53                           312
    x27       c61                           265
    x28       obj1                            1
    x28       c1                            620
    x28       c29                           180
    x28       c32                           909
    x28       c34                           529
    x28       c39                           148
    x28       c40                           565
    x28       c45                           695
    x29       obj1                            1
    x29       c17                           817
    x29       c24                           296
    x29       c27                           683
    x29       c31                           105
    x29       c36                           722
    x30       obj1                            1
    x30       c13                           344
    x30       c20                           631
    x30       c35                           350
    x30       c37                           151
    x30       c43                           326
    x30       c58                           931
    x31       obj1                            1
    x31       c6                            465
    x31       c19                           962
    x31       c22                           848
    x31       c25                           200
    x31       c34                           930
    x31       c60                           509
    x32       obj1                            1
    x32       c2                            709
    x32       c3                            707
    x32       c4                            236
    x32       c6                            183
    x32       c7                            963
    x32       c11                           608
    x32       c15                           520
    x32       c19                           672
    x32       c27                           471
    x32       c50                           188
    x32       c60                           644
    x33       obj1                            1
    x33       c1                            655
    x33       c4                            689
    x33       c13                           769
    x33       c31                           156
    x33       c33                           507
    x33       c47                           418
    x33       c56                           629
    x33       c62                           276
    x33       c68                           509
    x34       obj1                            1
    x34       c9                            520
    x34       c16                           761
    x34       c17                           491
    x34       c25                           152
    x34       c26                           667
    x34       c28                           854
    x34       c42                           173
    x34       c54                           694
    x34       c61                           355
    x34       c69                           179
    x35       obj1                            1
    x35       c2                            225
    x35       c14                           980
    x35       c31                           328
    x35       c40                           596
    x35       c48                           677
    x35       c66                           897
    x35       c70                           146
    x36       obj1                            1
    x36       c23                           227
    x36       c24                           517
    x36       c33                           106
    x36       c34                           805
    x36       c50                           786
    x36       c51                           813
    x36       c54                           615
    x36       c69                           297
    x36       c70                           247
    x37       obj1                            1
    x37       c1                            187
    x37       c7                            664
    x37       c11                           288
    x37       c14                           513
    x37       c31                           753
    x37       c50                           218
    x37       c68                           535
    x37       c70                           189
    x38       obj1                            1
    x38       c16                           681
    x38       c19                           888
    x38       c22                           165
    x38       c41                           829
    x38       c49                           854
    x38       c51                           730
    x38       c64                           532
    x38       c65                           640
    x38       c67                           354
    x38       c68                           820
    x39       obj1                            1
    x39       c15                           405
    x39       c24                           426
    x39       c29                           109
    x39       c34                           613
    x39       c37                           883
    x39       c55                           685
    x39       c56                           540
    x39       c69                           638
    x40       obj1                            1
    x40       c13                           346
    x40       c16                           869
    x40       c23                           959
    x40       c25                           816
    x40       c34                           824
    x40       c38                           729
    x40       c53                           311
    x40       c54                           178
    x41       obj1                            1
    x41       c1                            970
    x41       c10                           760
    x41       c36                           508
    x41       c39                           656
    x41       c42                           374
    x41       c63                           994
    x41       c66                           189
    x42       obj1                            1
    x42       c4                            868
    x42       c7                            867
    x42       c12                           241
    x42       c54                           613
    x43       obj1                            1
    x43       c27                           336
    x43       c45                           250
    x43       c48                           269
    x43       c53                           458
    x43       c66                           589
    x43       c67                           785
    x43       c69                           446
    x44       obj1                            1
    x44       c7                            882
    x44       c14                           617
    x44       c23                           634
    x44       c29                           963
    x44       c49                           174
    x44       c66                           932
    x45       obj1                            1
    x45       c11                           137
    x45       c13                           270
    x45       c18                           269
    x45       c28                           943
    x45       c34                           817
    x45       c35                           324
    x45       c45                           106
    x45       c46                           712
    x45       c59                           882
    x45       c63                           697
    x46       obj1                            1
    x46       c2                            885
    x46       c22                           496
    x46       c26                           623
    x46       c28                           110
    x46       c33                           795
    x46       c37                           447
    x46       c40                           312
    x46       c41                           181
    x46       c47                           909
    x46       c49                           444
    x46       c68                           955
    x46       c69                           182
    x46       c70                           706
    x47       obj1                            1
    x47       c6                            429
    x47       c21                           345
    x47       c28                           768
    x47       c32                           660
    x47       c44                           503
    x47       c47                           903
    x47       c51                           276
    x47       c63                           320
    x47       c64                           871
    x47       c69                           382
    x48       obj1                            1
    x48       c7                            216
    x48       c9                            432
    x48       c21                           634
    x48       c25                           366
    x48       c42                           109
    x48       c49                           148
    x48       c55                           589
    x48       c59                           590
    x48       c68                           436
    x49       obj1                            1
    x49       c5                            206
    x49       c21                           208
    x49       c33                           671
    x49       c47                           901
    x49       c52                           536
    x49       c53                           136
    x49       c62                           654
    x49       c65                           305
    x50       obj1                            1
    x50       c7                            294
    x50       c10                           296
    x50       c12                           409
    x50       c19                           847
    x50       c20                           648
    x50       c33                           428
    x50       c53                           969
    x50       c57                           275
    x50       c70                           979
    x51       obj1                            1
    x51       c10                           467
    x51       c19                           825
    x51       c20                           608
    x51       c22                           133
    x51       c40                           366
    x51       c64                           231
    x52       obj1                            1
    x52       c8                            525
    x52       c17                           450
    x52       c22                           909
    x52       c30                           739
    x52       c36                           140
    x52       c44                           242
    x52       c54                           292
    x52       c60                           521
    x53       obj1                            1
    x53       c1                            703
    x53       c38                           848
    x53       c39                           979
    x53       c56                           417
    x54       obj1                            1
    x54       c32                           176
    x54       c55                           269
    x54       c65                           278
    x55       obj1                            1
    x55       c18                           718
    x55       c28                           591
    x55       c35                           549
    x55       c42                           133
    x55       c51                           227
    x55       c59                           968
    x55       c68                           325
    x55       c70                           160
    x56       obj1                            1
    x56       c10                           775
    x56       c17                           318
    x56       c41                           793
    x56       c44                           706
    x56       c62                           509
    x56       c65                           427
    x57       obj1                            1
    x57       c20                           174
    x57       c26                           585
    x57       c36                           646
    x57       c37                           613
    x57       c47                           967
    x57       c60                           834
    x58       obj1                            1
    x58       c4                            988
    x58       c18                           146
    x58       c25                           998
    x58       c27                           692
    x58       c29                           555
    x58       c38                           990
    x58       c62                           639
    x58       c67                           665
    x59       obj1                            1
    x59       c11                           969
    x59       c21                           479
    x59       c41                           992
    x59       c69                           120
    x60       obj1                            1
    x60       c2                            954
    x60       c6                            749
    x60       c45                           684
    x61       obj1                            1
    x61       c9                            882
    x61       c14                           449
    x61       c25                           125
    x61       c43                           860
    x61       c44                           844
    x61       c53                           917
    x61       c58                           744
    x61       c62                           604
    x61       c67                           911
    x61       c70                           182
    x62       obj1                            1
    x62       c8                            755
    x62       c21                           343
    x62       c28                           251
    x62       c31                           752
    x62       c41                           159
    x62       c53                           335
    x62       c54                           598
    x62       c57                           257
    x63       obj1                            1
    x63       c15                           311
    x63       c60                           467
    x64       obj1                            1
    x64       c3                            491
    x64       c4                            505
    x64       c6                            454
    x64       c20                           144
    x64       c32                           614
    x64       c40                           463
    x64       c46                           967
    x64       c56                           886
    x64       c59                           705
    x64       c62                           841
    x64       c67                           558
    x65       obj1                            1
    x65       c23                           308
    x65       c34                           868
    x65       c42                           283
    x65       c61                           300
    x65       c62                           148
    x66       obj1                            1
    x66       c1                            575
    x66       c7                            376
    x66       c13                           317
    x66       c20                           799
    x66       c29                           397
    x66       c37                           735
    x66       c40                           525
    x66       c42                           620
    x66       c62                           646
    x66       c66                           428
    x66       c70                           537
    x67       obj1                            1
    x67       c31                           418
    x67       c33                           604
    x67       c38                           114
    x67       c48                           435
    x67       c67                           897
    x68       obj1                            1
    x68       c13                           362
    x68       c16                           838
    x68       c19                           625
    x68       c21                           675
    x68       c29                           195
    x68       c32                           823
    x68       c37                           511
    x68       c40                           635
    x68       c51                           874
    x68       c57                           846
    x68       c58                           983
    x69       obj1                            1
    x69       c3                            651
    x69       c6                            643
    x69       c14                           976
    x69       c39                           442
    x69       c44                           501
    x69       c46                           523
    x69       c55                           654
    x70       obj1                            1
    x70       c4                            891
    x70       c14                           173
    x70       c23                           107
    x70       c28                           368
    x70       c33                           712
    x70       c34                           945
    x70       c68                           415
    MARK0001  'MARKER'                 'INTEND'
RHS
    rhs       c1                           2036
    rhs       c2                           2276
    rhs       c3                           1607
    rhs       c4                           2881
    rhs       c5                           1238
    rhs       c6                           1688
    rhs       c7                           2728
    rhs       c8                           1843
    rhs       c9                           1858
    rhs       c10                          1885
    rhs       c11                          1147
    rhs       c12                          1588
    rhs       c13                          2082
    rhs       c14                          2980
    rhs       c15                          1163
    rhs       c16                          2114
    rhs       c17                          3192
    rhs       c18                          1710
    rhs       c19                          3113
    rhs       c20                          2290
    rhs       c21                          1764
    rhs       c22                          2936
    rhs       c23                          1353
    rhs       c24                          2711
    rhs       c25                          1886
    rhs       c26                          3022
    rhs       c27                          2288
    rhs       c28                          2546
    rhs       c29                          2114
    rhs       c30                          1129
    rhs       c31                          2202
    rhs       c32                          2879
    rhs       c33                          2935
    rhs       c34                          3858
    rhs       c35                          1384
    rhs       c36                          1008
    rhs       c37                          2786
    rhs       c38                          1905
    rhs       c39                          1852
    rhs       c40                          1731
    rhs       c41                          2145
    rhs       c42                          1611
    rhs       c43                           861
    rhs       c44                          2655
    rhs       c45                          2151
    rhs       c46                          3008
    rhs       c47                          2516
    rhs       c48                          1530
    rhs       c49                          1497
    rhs       c50                          1825
    rhs       c51                          2454
    rhs       c52                           963
    rhs       c53                          2108
    rhs       c54                          1733
    rhs       c55                          1646
    rhs       c56                          2110
    rhs       c57                          1729
    rhs       c58                          2004
    rhs       c59                          1573
    rhs       c60                          2639
    rhs       c61                          1035
    rhs       c62                          2657
    rhs       c63                          1229
    rhs       c64                          1563
    rhs       c65                          2002
    rhs       c66                          2976
    rhs       c67                          2580
    rhs       c68                          2286
    rhs       c69                          1672
    rhs       c70                          1961
BOUNDS
 LI bnd       x1        0
 LI bnd       x2        0
 LI bnd       x3        0
 LI bnd       x4        0
 LI bnd       x5        0
 LI bnd       x6        0
 LI bnd       x7        0
 LI bnd       x8        0
 LI bnd       x9        0
 LI bnd       x10       0
 LI bnd       x11       0
 LI bnd       x12       0
 LI bnd       x13       0
 LI bnd       x14       0
 LI bnd       x15       0
 LI bnd       x16       0
 LI bnd       x17       0
 LI bnd       x18       0
 LI bnd       x19       0
 LI bnd       x20       0
 LI bnd       x21       0
 LI bnd       x22       0
 LI bnd       x23       0
 LI bnd       x24       0
 LI bnd       x25       0
 LI bnd       x26       0
 LI bnd       x27       0
 LI bnd       x28       0
 LI bnd       x29       0
 LI bnd       x30       0
 LI bnd       x31       0
 LI bnd       x32       0
 LI bnd       x33       0
 LI bnd       x34       0
 LI bnd       x35       0
 LI bnd       x36       0
 LI bnd       x37       0
 LI bnd       x38       0
 LI bnd       x39       0
 LI bnd       x40       0
 LI bnd       x41       0
 LI bnd       x42       0
 LI bnd       x43       0
 LI bnd       x44       0
 LI bnd       x45       0
 LI bnd       x46       0
 LI bnd       x47       0
 LI bnd       x48       0
 LI bnd       x49       0
 LI bnd       x50       0
 LI bnd       x51       0
 LI bnd       x52       0
 LI bnd       x53       0
 LI bnd       x54       0
 LI bnd       x55       0
 LI bnd       x56       0
 LI bnd       x57       0
 LI bnd       x58       0
 LI bnd       x59       0
 LI bnd       x60       0
 LI bnd       x61       0
 LI bnd       x62       0
 LI bnd       x63       0
 LI bnd       x64       0
 LI bnd       x65       0
 LI bnd       x66       0
 LI bnd       x67       0
 LI bnd       x68       0
 LI bnd       x69       0
 LI bnd       x70       0
ENDATA
